50
1000
489
488
473
468
459
450
443
434
429
417
415
404
393
379
376
376
375
372
363
362
360
359
348
348
343
341
338
334
334
332
324
301
291
289
288
270
268
255
255
242
228
228
227
218
203
196
195
181
179
173
